p cnf 161 615
75 77 80 0
60 64 76 0
67 107 0
58 61 63 0
47 86 109 0
70 91 96 97 0
99 149 0
83 93 0
73 81 95 0
55 56 88 103 0
50 53 0
62 85 0
38 41 42 46 0
32 34 35 101 0
51 106 160 0
30 45 0
26 28 74 78 0
25 48 54 0
23 24 68 0
43 59 66 69 108 0
110 111 112 113 0
71 114 115 116 0
98 102 117 0
31 119 120 0
122 123 124 137 0
82 125 0
65 90 104 140 0
44 49 0
72 92 128 0
33 130 0
133 153 0
79 126 0
134 135 136 0
132 138 145 0
94 139 0
89 105 0
87 141 142 0
-143 -144 0
-143 -148 0
-75 -143 0
-76 -143 0
-144 -148 0
-75 -144 0
-76 -144 0
-75 -148 0
-76 -148 0
-75 -76 0
-86 -91 0
-86 -131 0
-86 -151 0
-86 -152 0
-91 -131 0
-91 -151 0
-91 -152 0
-131 -151 0
-131 -152 0
-151 -152 0
-30 -106 0
-106 -154 0
-106 -157 0
-28 -106 0
-30 -154 0
-30 -157 0
-28 -30 0
-154 -157 0
-28 -154 0
-28 -157 0
-66 -110 0
-66 -114 0
-66 -98 0
-66 -119 0
-110 -114 0
-98 -110 0
-110 -119 0
-98 -114 0
-114 -119 0
-98 -119 0
-82 -100 0
-65 -100 0
-57 -100 0
-49 -100 0
-65 -82 0
-57 -82 0
-49 -82 0
-57 -65 0
-49 -65 0
-49 -57 0
-86 -143 0
-106 -143 0
-66 -143 0
-100 -143 0
-86 -106 0
-66 -86 0
-86 -100 0
-66 -106 0
-100 -106 0
-66 -100 0
-91 -144 0
-30 -144 0
-110 -144 0
-82 -144 0
-30 -91 0
-91 -110 0
-82 -91 0
-30 -110 0
-30 -82 0
-82 -110 0
-131 -148 0
-148 -154 0
-114 -148 0
-65 -148 0
-131 -154 0
-114 -131 0
-65 -131 0
-114 -154 0
-65 -154 0
-65 -114 0
-75 -151 0
-75 -157 0
-75 -98 0
-57 -75 0
-151 -157 0
-98 -151 0
-57 -151 0
-98 -157 0
-57 -157 0
-57 -98 0
-76 -152 0
-28 -76 0
-76 -119 0
-49 -76 0
-28 -152 0
-119 -152 0
-49 -152 0
-28 -119 0
-28 -49 0
-49 -119 0
-47 -70 0
-47 -159 0
-70 -159 0
-73 -88 0
-73 -85 0
-85 -88 0
-69 -111 0
-69 -117 0
-111 -117 0
-47 -73 0
-47 -69 0
-69 -73 0
-70 -88 0
-70 -111 0
-88 -111 0
-85 -159 0
-117 -159 0
-85 -117 0
-46 -103 0
-35 -103 0
-35 -46 0
-158 -161 0
-134 -161 0
-134 -158 0
-84 -87 0
-39 -84 0
-39 -87 0
-103 -161 0
-84 -103 0
-84 -161 0
-46 -158 0
-46 -87 0
-87 -158 0
-35 -134 0
-35 -39 0
-39 -134 0
-53 -95 0
-95 -127 0
-34 -95 0
-53 -127 0
-34 -53 0
-34 -127 0
-43 -71 0
-43 -122 0
-43 -146 0
-71 -122 0
-71 -146 0
-122 -146 0
-90 -150 0
-37 -150 0
-92 -150 0
-37 -90 0
-90 -92 0
-37 -92 0
-22 -130 0
-79 -130 0
-130 -135 0
-22 -79 0
-22 -135 0
-79 -135 0
-43 -95 0
-95 -150 0
-95 -130 0
-43 -150 0
-43 -130 0
-130 -150 0
-53 -71 0
-53 -90 0
-22 -53 0
-71 -90 0
-22 -71 0
-22 -90 0
-122 -127 0
-37 -127 0
-79 -127 0
-37 -122 0
-79 -122 0
-37 -79 0
-34 -146 0
-34 -92 0
-34 -135 0
-92 -146 0
-135 -146 0
-92 -135 0
-29 -156 0
-27 -29 0
-29 -60 0
-29 -67 0
-29 -61 0
-27 -156 0
-60 -156 0
-67 -156 0
-61 -156 0
-27 -60 0
-27 -67 0
-27 -61 0
-60 -67 0
-60 -61 0
-61 -67 0
-97 -109 0
-109 -118 0
-21 -109 0
-99 -109 0
-93 -109 0
-97 -118 0
-21 -97 0
-97 -99 0
-93 -97 0
-21 -118 0
-99 -118 0
-93 -118 0
-21 -99 0
-21 -93 0
-93 -99 0
-56 -81 0
-50 -81 0
-42 -81 0
-20 -81 0
-32 -81 0
-50 -56 0
-42 -56 0
-20 -56 0
-32 -56 0
-42 -50 0
-20 -50 0
-32 -50 0
-20 -42 0
-32 -42 0
-20 -32 0
-108 -112 0
-108 -115 0
-108 -120 0
-108 -123 0
-19 -108 0
-112 -115 0
-112 -120 0
-112 -123 0
-19 -112 0
-115 -120 0
-115 -123 0
-19 -115 0
-120 -123 0
-19 -120 0
-19 -123 0
-18 -125 0
-18 -104 0
-18 -44 0
-17 -18 0
-18 -72 0
-104 -125 0
-44 -125 0
-17 -125 0
-72 -125 0
-44 -104 0
-17 -104 0
-72 -104 0
-17 -44 0
-44 -72 0
-17 -72 0
-16 -138 0
-94 -138 0
-138 -141 0
-14 -138 0
-13 -138 0
-16 -94 0
-16 -141 0
-14 -16 0
-13 -16 0
-94 -141 0
-14 -94 0
-13 -94 0
-14 -141 0
-13 -141 0
-13 -14 0
-29 -109 0
-29 -81 0
-29 -108 0
-18 -29 0
-29 -138 0
-81 -109 0
-108 -109 0
-18 -109 0
-109 -138 0
-81 -108 0
-18 -81 0
-81 -138 0
-18 -108 0
-108 -138 0
-18 -138 0
-97 -156 0
-56 -156 0
-112 -156 0
-125 -156 0
-16 -156 0
-56 -97 0
-97 -112 0
-97 -125 0
-16 -97 0
-56 -112 0
-56 -125 0
-16 -56 0
-112 -125 0
-16 -112 0
-16 -125 0
-27 -118 0
-27 -50 0
-27 -115 0
-27 -104 0
-27 -94 0
-50 -118 0
-115 -118 0
-104 -118 0
-94 -118 0
-50 -115 0
-50 -104 0
-50 -94 0
-104 -115 0
-94 -115 0
-94 -104 0
-21 -60 0
-42 -60 0
-60 -120 0
-44 -60 0
-60 -141 0
-21 -42 0
-21 -120 0
-21 -44 0
-21 -141 0
-42 -120 0
-42 -44 0
-42 -141 0
-44 -120 0
-120 -141 0
-44 -141 0
-67 -99 0
-20 -67 0
-67 -123 0
-17 -67 0
-14 -67 0
-20 -99 0
-99 -123 0
-17 -99 0
-14 -99 0
-20 -123 0
-17 -20 0
-14 -20 0
-17 -123 0
-14 -123 0
-14 -17 0
-61 -93 0
-32 -61 0
-19 -61 0
-61 -72 0
-13 -61 0
-32 -93 0
-19 -93 0
-72 -93 0
-13 -93 0
-19 -32 0
-32 -72 0
-13 -32 0
-19 -72 0
-13 -19 0
-13 -72 0
-41 -62 0
-12 -62 0
-12 -41 0
-74 -147 0
-48 -147 0
-48 -74 0
-153 -155 0
-126 -153 0
-126 -155 0
-62 -147 0
-62 -153 0
-147 -153 0
-41 -74 0
-41 -155 0
-74 -155 0
-12 -48 0
-12 -126 0
-48 -126 0
-11 -80 0
-11 -64 0
-11 -58 0
-64 -80 0
-58 -80 0
-58 -64 0
-10 -160 0
-26 -160 0
-68 -160 0
-10 -26 0
-10 -68 0
-26 -68 0
-33 -133 0
-9 -33 0
-33 -136 0
-9 -133 0
-133 -136 0
-9 -136 0
-105 -132 0
-132 -142 0
-40 -132 0
-105 -142 0
-40 -105 0
-40 -142 0
-11 -160 0
-11 -33 0
-11 -132 0
-33 -160 0
-132 -160 0
-33 -132 0
-10 -80 0
-80 -133 0
-80 -105 0
-10 -133 0
-10 -105 0
-105 -133 0
-26 -64 0
-9 -64 0
-64 -142 0
-9 -26 0
-26 -142 0
-9 -142 0
-58 -68 0
-58 -136 0
-40 -58 0
-68 -136 0
-40 -68 0
-40 -136 0
-96 -121 0
-96 -149 0
-83 -96 0
-121 -149 0
-83 -121 0
-83 -149 0
-38 -55 0
-55 -129 0
-55 -101 0
-38 -129 0
-38 -101 0
-101 -129 0
-45 -78 0
-25 -45 0
-24 -45 0
-25 -78 0
-24 -78 0
-24 -25 0
-31 -113 0
-113 -124 0
-8 -113 0
-31 -124 0
-8 -31 0
-8 -124 0
-55 -96 0
-45 -96 0
-96 -113 0
-45 -55 0
-55 -113 0
-45 -113 0
-38 -121 0
-78 -121 0
-31 -121 0
-38 -78 0
-31 -38 0
-31 -78 0
-129 -149 0
-25 -149 0
-124 -149 0
-25 -129 0
-124 -129 0
-25 -124 0
-83 -101 0
-24 -83 0
-8 -83 0
-24 -101 0
-8 -101 0
-8 -24 0
-6 -7 0
-7 -77 0
-7 -107 0
-7 -63 0
-6 -77 0
-6 -107 0
-6 -63 0
-77 -107 0
-63 -77 0
-63 -107 0
-5 -51 0
-4 -51 0
-51 -54 0
-23 -51 0
-4 -5 0
-5 -54 0
-5 -23 0
-4 -54 0
-4 -23 0
-23 -54 0
-59 -116 0
-59 -102 0
-59 -137 0
-3 -59 0
-102 -116 0
-116 -137 0
-3 -116 0
-102 -137 0
-3 -102 0
-3 -137 0
-15 -140 0
-15 -52 0
-2 -15 0
-15 -128 0
-52 -140 0
-2 -140 0
-128 -140 0
-2 -52 0
-52 -128 0
-2 -128 0
-139 -145 0
-89 -145 0
-1 -145 0
-36 -145 0
-89 -139 0
-1 -139 0
-36 -139 0
-1 -89 0
-36 -89 0
-1 -36 0
-7 -51 0
-7 -59 0
-7 -15 0
-7 -145 0
-51 -59 0
-15 -51 0
-51 -145 0
-15 -59 0
-59 -145 0
-15 -145 0
-5 -6 0
-6 -116 0
-6 -140 0
-6 -139 0
-5 -116 0
-5 -140 0
-5 -139 0
-116 -140 0
-116 -139 0
-139 -140 0
-4 -77 0
-77 -102 0
-52 -77 0
-77 -89 0
-4 -102 0
-4 -52 0
-4 -89 0
-52 -102 0
-89 -102 0
-52 -89 0
-54 -107 0
-107 -137 0
-2 -107 0
-1 -107 0
-54 -137 0
-2 -54 0
-1 -54 0
-2 -137 0
-1 -137 0
-1 -2 0
-23 -63 0
-3 -63 0
-63 -128 0
-36 -63 0
-3 -23 0
-23 -128 0
-23 -36 0
-3 -128 0
-3 -36 0
-36 -128 0
